(set-logic QF_S)
(declare-fun var0 () String)
(assert (str.in.re var0 (re.++ (re.union (re.inter (re.union (re.inter (re.union (re.inter (str.to.re "00") (str.to.re "11")) (re.inter (str.to.re "2") (str.to.re "33"))) (re.union (re.inter (str.to.re "444") (str.to.re "55")) (re.inter (str.to.re "66") (str.to.re "77")))) (re.inter (re.union (re.inter (str.to.re "88") (str.to.re "99")) (re.inter (str.to.re "aaa") (str.to.re "b"))) (re.union (re.inter (str.to.re "ccc") (str.to.re "d")) (re.inter (str.to.re "ee") (str.to.re "f"))))) (re.union (re.inter (re.union (re.inter (str.to.re "g") (str.to.re "hhh")) (re.inter (str.to.re "ii") (str.to.re "jjj"))) (re.union (re.inter (str.to.re "kkk") (str.to.re "lll")) (re.inter (str.to.re "m") (str.to.re "nn")))) (re.inter (re.union (re.inter (str.to.re "o") (str.to.re "ppp")) (re.inter (str.to.re "q") (str.to.re "rrr"))) (re.union (re.inter (str.to.re "ss") (str.to.re "tt")) (re.inter (str.to.re "uuu") (str.to.re "v")))))) (re.inter (re.union (re.inter (re.union (re.inter (str.to.re "ww") (str.to.re "xx")) (re.inter (str.to.re "yy") (str.to.re "zzz"))) (re.union (re.inter (str.to.re "AAA") (str.to.re "B")) (re.inter (str.to.re "CCC") (str.to.re "DD")))) (re.inter (re.union (re.inter (str.to.re "EE") (str.to.re "FFF")) (re.inter (str.to.re "GG") (str.to.re "H"))) (re.union (re.inter (str.to.re "III") (str.to.re "J")) (re.inter (str.to.re "K") (str.to.re "LLL"))))) (re.union (re.inter (re.union (re.inter (str.to.re "MM") (str.to.re "NNN")) (re.inter (str.to.re "OOO") (str.to.re "PPP"))) (re.union (re.inter (str.to.re "Q") (str.to.re "RRR")) (re.inter (str.to.re "SS") (str.to.re "TT")))) (re.inter (re.union (re.inter (str.to.re "U") (str.to.re "VVV")) (re.inter (str.to.re "WW") (str.to.re "XXX"))) (re.union (re.inter (str.to.re "Y") (str.to.re "Z")) (re.inter (str.to.re "!!!") (str.to.re "'"))))))) (re.++ (re.union (re.inter (re.union (re.inter (re.union (re.inter (str.to.re "#") (str.to.re "$")) (re.inter (str.to.re "%%%") (str.to.re "&&"))) (re.union (re.inter (str.to.re "'") (str.to.re "(")) (re.inter (str.to.re "))") (str.to.re "***")))) (re.inter (re.union (re.inter (str.to.re "++") (str.to.re ",")) (re.inter (str.to.re "--") (str.to.re "..."))) (re.union (re.inter (str.to.re "//") (str.to.re ":::")) (re.inter (str.to.re ";") (str.to.re "<<<"))))) (re.union (re.inter (re.union (re.inter (str.to.re "==") (str.to.re ">>>")) (re.inter (str.to.re "?") (str.to.re "@@@"))) (re.union (re.inter (str.to.re "[[[") (str.to.re "\\\\\\")) (re.inter (str.to.re "]]") (str.to.re "^^")))) (re.inter (re.union (re.inter (str.to.re "_") (str.to.re "```")) (re.inter (str.to.re "{{") (str.to.re "||"))) (re.union (re.inter (str.to.re "}}}") (str.to.re "~")) (re.inter (str.to.re "00") (str.to.re "1")))))) (re.inter (re.union (re.inter (re.union (re.inter (str.to.re "2") (str.to.re "3")) (re.inter (str.to.re "4") (str.to.re "555"))) (re.union (re.inter (str.to.re "666") (str.to.re "77")) (re.inter (str.to.re "88") (str.to.re "9")))) (re.inter (re.union (re.inter (str.to.re "a") (str.to.re "bbb")) (re.inter (str.to.re "c") (str.to.re "d"))) (re.union (re.inter (str.to.re "e") (str.to.re "f")) (re.inter (str.to.re "ggg") (str.to.re "hhh"))))) (re.union (re.inter (re.union (re.inter (str.to.re "iii") (str.to.re "jj")) (re.inter (str.to.re "kkk") (str.to.re "lll"))) (re.union (re.inter (str.to.re "mm") (str.to.re "nnn")) (re.inter (str.to.re "o") (str.to.re "p")))) (re.inter (re.union (re.inter (str.to.re "qqq") (str.to.re "rrr")) (re.inter (str.to.re "ss") (str.to.re "ttt"))) (re.union (re.inter (str.to.re "uu") (str.to.re "vv")) (re.inter (str.to.re "ww") (str.to.re "xxx"))))))) (re.union (re.inter (re.union (re.inter (re.union (re.inter (str.to.re "yyy") (str.to.re "zzz")) (re.inter (str.to.re "AA") (str.to.re "B"))) (re.union (re.inter (str.to.re "CC") (str.to.re "DDD")) (re.inter (str.to.re "E") (str.to.re "FF")))) (re.inter (re.union (re.inter (str.to.re "GGG") (str.to.re "HHH")) (re.inter (str.to.re "II") (str.to.re "J"))) (re.union (re.inter (str.to.re "K") (str.to.re "L")) (re.inter (str.to.re "MMM") (str.to.re "NN"))))) (re.union (re.inter (re.union (re.inter (str.to.re "O") (str.to.re "PPP")) (re.inter (str.to.re "Q") (str.to.re "RR"))) (re.union (re.inter (str.to.re "S") (str.to.re "TT")) (re.inter (str.to.re "UU") (str.to.re "V")))) (re.inter (re.union (re.inter (str.to.re "W") (str.to.re "X")) (re.inter (str.to.re "YYY") (str.to.re "Z"))) (re.union (re.inter (str.to.re "!") (str.to.re "'''")) (re.inter (str.to.re "###") (str.to.re "$$$")))))) (re.inter (re.union (re.inter (re.union (re.inter (str.to.re "%%%") (str.to.re "&&&")) (re.inter (str.to.re "'") (str.to.re "("))) (re.union (re.inter (str.to.re ")") (str.to.re "***")) (re.inter (str.to.re "+") (str.to.re ",,,")))) (re.inter (re.union (re.inter (str.to.re "---") (str.to.re ".")) (re.inter (str.to.re "//") (str.to.re ":"))) (re.union (re.inter (str.to.re ";;") (str.to.re "<")) (re.inter (str.to.re "=") (str.to.re ">>>"))))) (re.union (re.inter (re.union (re.inter (str.to.re "?") (str.to.re "@")) (re.inter (str.to.re "[") (str.to.re "\\\\\\"))) (re.union (re.inter (str.to.re "]") (str.to.re "^^")) (re.inter (str.to.re "_") (str.to.re "```")))) (re.inter (re.union (re.inter (str.to.re "{") (str.to.re "|||")) (re.inter (str.to.re "}") (str.to.re "~~~"))) (re.union (re.inter (str.to.re "00") (str.to.re "111")) (re.inter (str.to.re "2") (str.to.re "33")))))))))))
(check-sat)
(get-model)
